<instance format="XCSP3" type="CSP">
  <variables>
    <array id="w" size="[2]"> 0 </array>
    <array id="x" size="[16]"> 0..3 </array>
    <array id="y" size="[30]"> 0..15 </array>
    <array id="z" size="[16]"> 1..8 </array>
  </variables>
  <constraints>
    <extension>
      <list> w[0] w[1] </list>
      <conflicts>  </conflicts>
    </extension>
    <group>
      <extension>
        <list> %0 %1 </list>
        <conflicts> (0,0) </conflicts>
      </extension>
      <args> w[0] y[1] </args>
      <args> w[0] y[3] </args>
      <args> w[0] y[5] </args>
      <args> w[0] y[7] </args>
      <args> w[0] y[9] </args>
      <args> w[0] y[11] </args>
      <args> w[0] y[13] </args>
      <args> w[0] y[15] </args>
      <args> w[0] y[17] </args>
      <args> w[0] y[19] </args>
      <args> w[0] y[21] </args>
      <args> w[0] y[23] </args>
      <args> w[0] y[25] </args>
      <args> w[0] y[27] </args>
      <args> w[0] y[29] </args>
      <args> w[0] y[0] </args>
      <args> w[0] y[2] </args>
      <args> w[0] y[4] </args>
      <args> w[0] y[6] </args>
      <args> w[0] y[8] </args>
      <args> w[0] y[10] </args>
      <args> w[0] y[12] </args>
      <args> w[0] y[14] </args>
      <args> w[0] y[16] </args>
      <args> w[0] y[18] </args>
      <args> w[0] y[20] </args>
      <args> w[0] y[22] </args>
      <args> w[0] y[24] </args>
      <args> w[0] y[26] </args>
      <args> w[0] y[28] </args>
      <args> y[0] w[1] </args>
      <args> y[2] w[1] </args>
      <args> y[4] w[1] </args>
      <args> y[6] w[1] </args>
      <args> y[8] w[1] </args>
      <args> y[10] w[1] </args>
      <args> y[12] w[1] </args>
      <args> y[14] w[1] </args>
      <args> y[16] w[1] </args>
      <args> y[18] w[1] </args>
      <args> y[20] w[1] </args>
      <args> y[22] w[1] </args>
      <args> y[24] w[1] </args>
      <args> y[26] w[1] </args>
      <args> y[28] w[1] </args>
    </group>
    <extension>
      <list> w[0] x[0] </list>
      <supports> (0,0) </supports>
    </extension>
    <group>
      <extension>
        <list> %0 %1 </list>
        <supports> (1,0)(2,0)(3,1)(4,1)(5,2)(6,2)(7,3)(8,3) </supports>
      </extension>
      <args> z[1] x[0] </args>
      <args> z[2] x[1] </args>
      <args> z[3] x[2] </args>
      <args> z[4] x[3] </args>
      <args> z[5] x[4] </args>
      <args> z[6] x[5] </args>
      <args> z[7] x[6] </args>
      <args> z[8] x[7] </args>
      <args> z[9] x[8] </args>
      <args> z[10] x[9] </args>
      <args> z[11] x[10] </args>
      <args> z[12] x[11] </args>
      <args> z[13] x[12] </args>
      <args> z[14] x[13] </args>
      <args> z[15] x[14] </args>
    </group>
    <group>
      <extension>
        <list> %0 %1 </list>
        <conflicts> (0,1)(1,0)(1,2)(1,3)(1,4)(1,5)(1,6)(1,7)(1,8)(1,9)(1,10)(1,11)(1,12)(1,13)(1,14)(1,15)(2,1)(3,1)(4,1)(5,1)(6,1)(7,1)(8,1)(9,1)(10,1)(11,1)(12,1)(13,1)(14,1)(15,1) </conflicts>
      </extension>
      <args> y[0] y[1] </args>
      <args> y[0] y[3] </args>
      <args> y[0] y[5] </args>
      <args> y[0] y[7] </args>
      <args> y[0] y[9] </args>
      <args> y[0] y[11] </args>
      <args> y[0] y[13] </args>
      <args> y[0] y[15] </args>
      <args> y[0] y[17] </args>
      <args> y[0] y[19] </args>
      <args> y[0] y[21] </args>
      <args> y[0] y[23] </args>
      <args> y[0] y[25] </args>
      <args> y[0] y[27] </args>
      <args> y[0] y[29] </args>
      <args> y[2] y[1] </args>
      <args> y[4] y[1] </args>
      <args> y[6] y[1] </args>
      <args> y[8] y[1] </args>
      <args> y[10] y[1] </args>
      <args> y[12] y[1] </args>
      <args> y[14] y[1] </args>
      <args> y[16] y[1] </args>
      <args> y[18] y[1] </args>
      <args> y[20] y[1] </args>
      <args> y[22] y[1] </args>
      <args> y[24] y[1] </args>
      <args> y[26] y[1] </args>
      <args> y[28] y[1] </args>
      <args> y[2] y[3] </args>
      <args> y[2] y[5] </args>
      <args> y[2] y[7] </args>
      <args> y[2] y[9] </args>
      <args> y[2] y[11] </args>
      <args> y[2] y[13] </args>
      <args> y[2] y[15] </args>
      <args> y[2] y[17] </args>
      <args> y[2] y[19] </args>
      <args> y[2] y[21] </args>
      <args> y[2] y[23] </args>
      <args> y[2] y[25] </args>
      <args> y[2] y[27] </args>
      <args> y[2] y[29] </args>
      <args> y[4] y[3] </args>
      <args> y[6] y[3] </args>
      <args> y[8] y[3] </args>
      <args> y[10] y[3] </args>
      <args> y[12] y[3] </args>
      <args> y[14] y[3] </args>
      <args> y[16] y[3] </args>
      <args> y[18] y[3] </args>
      <args> y[20] y[3] </args>
      <args> y[22] y[3] </args>
      <args> y[24] y[3] </args>
      <args> y[26] y[3] </args>
      <args> y[28] y[3] </args>
      <args> y[4] y[5] </args>
      <args> y[4] y[7] </args>
      <args> y[4] y[9] </args>
      <args> y[4] y[11] </args>
      <args> y[4] y[13] </args>
      <args> y[4] y[15] </args>
      <args> y[4] y[17] </args>
      <args> y[4] y[19] </args>
      <args> y[4] y[21] </args>
      <args> y[4] y[23] </args>
      <args> y[4] y[25] </args>
      <args> y[4] y[27] </args>
      <args> y[4] y[29] </args>
      <args> y[6] y[5] </args>
      <args> y[8] y[5] </args>
      <args> y[10] y[5] </args>
      <args> y[12] y[5] </args>
      <args> y[14] y[5] </args>
      <args> y[16] y[5] </args>
      <args> y[18] y[5] </args>
      <args> y[20] y[5] </args>
      <args> y[22] y[5] </args>
      <args> y[24] y[5] </args>
      <args> y[26] y[5] </args>
      <args> y[28] y[5] </args>
      <args> y[6] y[7] </args>
      <args> y[6] y[9] </args>
      <args> y[6] y[11] </args>
      <args> y[6] y[13] </args>
      <args> y[6] y[15] </args>
      <args> y[6] y[17] </args>
      <args> y[6] y[19] </args>
      <args> y[6] y[21] </args>
      <args> y[6] y[23] </args>
      <args> y[6] y[25] </args>
      <args> y[6] y[27] </args>
      <args> y[6] y[29] </args>
      <args> y[8] y[7] </args>
      <args> y[10] y[7] </args>
      <args> y[12] y[7] </args>
      <args> y[14] y[7] </args>
      <args> y[16] y[7] </args>
      <args> y[18] y[7] </args>
      <args> y[20] y[7] </args>
      <args> y[22] y[7] </args>
      <args> y[24] y[7] </args>
      <args> y[26] y[7] </args>
      <args> y[28] y[7] </args>
      <args> y[8] y[9] </args>
      <args> y[8] y[11] </args>
      <args> y[8] y[13] </args>
      <args> y[8] y[15] </args>
      <args> y[8] y[17] </args>
      <args> y[8] y[19] </args>
      <args> y[8] y[21] </args>
      <args> y[8] y[23] </args>
      <args> y[8] y[25] </args>
      <args> y[8] y[27] </args>
      <args> y[8] y[29] </args>
      <args> y[10] y[9] </args>
      <args> y[12] y[9] </args>
      <args> y[14] y[9] </args>
      <args> y[16] y[9] </args>
      <args> y[18] y[9] </args>
      <args> y[20] y[9] </args>
      <args> y[22] y[9] </args>
      <args> y[24] y[9] </args>
      <args> y[26] y[9] </args>
      <args> y[28] y[9] </args>
      <args> y[10] y[11] </args>
      <args> y[10] y[13] </args>
      <args> y[10] y[15] </args>
      <args> y[10] y[17] </args>
      <args> y[10] y[19] </args>
      <args> y[10] y[21] </args>
      <args> y[10] y[23] </args>
      <args> y[10] y[25] </args>
      <args> y[10] y[27] </args>
      <args> y[10] y[29] </args>
      <args> y[12] y[11] </args>
      <args> y[14] y[11] </args>
      <args> y[16] y[11] </args>
      <args> y[18] y[11] </args>
      <args> y[20] y[11] </args>
      <args> y[22] y[11] </args>
      <args> y[24] y[11] </args>
      <args> y[26] y[11] </args>
      <args> y[28] y[11] </args>
      <args> y[12] y[13] </args>
      <args> y[12] y[15] </args>
      <args> y[12] y[17] </args>
      <args> y[12] y[19] </args>
      <args> y[12] y[21] </args>
      <args> y[12] y[23] </args>
      <args> y[12] y[25] </args>
      <args> y[12] y[27] </args>
      <args> y[12] y[29] </args>
      <args> y[14] y[13] </args>
      <args> y[16] y[13] </args>
      <args> y[18] y[13] </args>
      <args> y[20] y[13] </args>
      <args> y[22] y[13] </args>
      <args> y[24] y[13] </args>
      <args> y[26] y[13] </args>
      <args> y[28] y[13] </args>
      <args> y[14] y[15] </args>
      <args> y[14] y[17] </args>
      <args> y[14] y[19] </args>
      <args> y[14] y[21] </args>
      <args> y[14] y[23] </args>
      <args> y[14] y[25] </args>
      <args> y[14] y[27] </args>
      <args> y[14] y[29] </args>
      <args> y[16] y[15] </args>
      <args> y[18] y[15] </args>
      <args> y[20] y[15] </args>
      <args> y[22] y[15] </args>
      <args> y[24] y[15] </args>
      <args> y[26] y[15] </args>
      <args> y[28] y[15] </args>
      <args> y[16] y[17] </args>
      <args> y[16] y[19] </args>
      <args> y[16] y[21] </args>
      <args> y[16] y[23] </args>
      <args> y[16] y[25] </args>
      <args> y[16] y[27] </args>
      <args> y[16] y[29] </args>
      <args> y[18] y[17] </args>
      <args> y[20] y[17] </args>
      <args> y[22] y[17] </args>
      <args> y[24] y[17] </args>
      <args> y[26] y[17] </args>
      <args> y[28] y[17] </args>
      <args> y[18] y[19] </args>
      <args> y[18] y[21] </args>
      <args> y[18] y[23] </args>
      <args> y[18] y[25] </args>
      <args> y[18] y[27] </args>
      <args> y[18] y[29] </args>
      <args> y[20] y[19] </args>
      <args> y[22] y[19] </args>
      <args> y[24] y[19] </args>
      <args> y[26] y[19] </args>
      <args> y[28] y[19] </args>
      <args> y[20] y[21] </args>
      <args> y[20] y[23] </args>
      <args> y[20] y[25] </args>
      <args> y[20] y[27] </args>
      <args> y[20] y[29] </args>
      <args> y[22] y[21] </args>
      <args> y[24] y[21] </args>
      <args> y[26] y[21] </args>
      <args> y[28] y[21] </args>
      <args> y[22] y[23] </args>
      <args> y[22] y[25] </args>
      <args> y[22] y[27] </args>
      <args> y[22] y[29] </args>
      <args> y[24] y[23] </args>
      <args> y[26] y[23] </args>
      <args> y[28] y[23] </args>
      <args> y[24] y[25] </args>
      <args> y[24] y[27] </args>
      <args> y[24] y[29] </args>
      <args> y[26] y[25] </args>
      <args> y[28] y[25] </args>
      <args> y[26] y[27] </args>
      <args> y[26] y[29] </args>
      <args> y[28] y[27] </args>
      <args> y[28] y[29] </args>
    </group>
    <group>
      <extension>
        <list> %0 %1 </list>
        <conflicts> (0,0)(1,1)(2,2)(3,3)(4,4)(5,5)(6,6)(7,7)(8,8)(9,9)(10,10)(11,11)(12,12)(13,13)(14,14)(15,15) </conflicts>
      </extension>
      <args> y[0] y[2] </args>
      <args> y[0] y[4] </args>
      <args> y[0] y[6] </args>
      <args> y[0] y[8] </args>
      <args> y[0] y[10] </args>
      <args> y[0] y[12] </args>
      <args> y[0] y[14] </args>
      <args> y[0] y[16] </args>
      <args> y[0] y[18] </args>
      <args> y[0] y[20] </args>
      <args> y[0] y[22] </args>
      <args> y[0] y[24] </args>
      <args> y[0] y[26] </args>
      <args> y[0] y[28] </args>
      <args> y[2] y[4] </args>
      <args> y[2] y[6] </args>
      <args> y[2] y[8] </args>
      <args> y[2] y[10] </args>
      <args> y[2] y[12] </args>
      <args> y[2] y[14] </args>
      <args> y[2] y[16] </args>
      <args> y[2] y[18] </args>
      <args> y[2] y[20] </args>
      <args> y[2] y[22] </args>
      <args> y[2] y[24] </args>
      <args> y[2] y[26] </args>
      <args> y[2] y[28] </args>
      <args> y[4] y[6] </args>
      <args> y[4] y[8] </args>
      <args> y[4] y[10] </args>
      <args> y[4] y[12] </args>
      <args> y[4] y[14] </args>
      <args> y[4] y[16] </args>
      <args> y[4] y[18] </args>
      <args> y[4] y[20] </args>
      <args> y[4] y[22] </args>
      <args> y[4] y[24] </args>
      <args> y[4] y[26] </args>
      <args> y[4] y[28] </args>
      <args> y[6] y[8] </args>
      <args> y[6] y[10] </args>
      <args> y[6] y[12] </args>
      <args> y[6] y[14] </args>
      <args> y[6] y[16] </args>
      <args> y[6] y[18] </args>
      <args> y[6] y[20] </args>
      <args> y[6] y[22] </args>
      <args> y[6] y[24] </args>
      <args> y[6] y[26] </args>
      <args> y[6] y[28] </args>
      <args> y[8] y[10] </args>
      <args> y[8] y[12] </args>
      <args> y[8] y[14] </args>
      <args> y[8] y[16] </args>
      <args> y[8] y[18] </args>
      <args> y[8] y[20] </args>
      <args> y[8] y[22] </args>
      <args> y[8] y[24] </args>
      <args> y[8] y[26] </args>
      <args> y[8] y[28] </args>
      <args> y[10] y[12] </args>
      <args> y[10] y[14] </args>
      <args> y[10] y[16] </args>
      <args> y[10] y[18] </args>
      <args> y[10] y[20] </args>
      <args> y[10] y[22] </args>
      <args> y[10] y[24] </args>
      <args> y[10] y[26] </args>
      <args> y[10] y[28] </args>
      <args> y[12] y[14] </args>
      <args> y[12] y[16] </args>
      <args> y[12] y[18] </args>
      <args> y[12] y[20] </args>
      <args> y[12] y[22] </args>
      <args> y[12] y[24] </args>
      <args> y[12] y[26] </args>
      <args> y[12] y[28] </args>
      <args> y[14] y[16] </args>
      <args> y[14] y[18] </args>
      <args> y[14] y[20] </args>
      <args> y[14] y[22] </args>
      <args> y[14] y[24] </args>
      <args> y[14] y[26] </args>
      <args> y[14] y[28] </args>
      <args> y[16] y[18] </args>
      <args> y[16] y[20] </args>
      <args> y[16] y[22] </args>
      <args> y[16] y[24] </args>
      <args> y[16] y[26] </args>
      <args> y[16] y[28] </args>
      <args> y[18] y[20] </args>
      <args> y[18] y[22] </args>
      <args> y[18] y[24] </args>
      <args> y[18] y[26] </args>
      <args> y[18] y[28] </args>
      <args> y[20] y[22] </args>
      <args> y[20] y[24] </args>
      <args> y[20] y[26] </args>
      <args> y[20] y[28] </args>
      <args> y[22] y[24] </args>
      <args> y[22] y[26] </args>
      <args> y[22] y[28] </args>
      <args> y[24] y[26] </args>
      <args> y[24] y[28] </args>
      <args> y[26] y[28] </args>
    </group>
    <group>
      <extension>
        <list> %0 %1 </list>
        <supports> (0,0)(1,1)(2,2)(3,3)(4,0)(5,1)(6,2)(7,3)(8,0)(9,1)(10,2)(11,3)(12,0)(13,1)(14,2)(15,3) </supports>
      </extension>
      <args> y[0] x[1] </args>
      <args> y[2] x[2] </args>
      <args> y[4] x[3] </args>
      <args> y[6] x[4] </args>
      <args> y[8] x[5] </args>
      <args> y[10] x[6] </args>
      <args> y[12] x[7] </args>
      <args> y[14] x[8] </args>
      <args> y[16] x[9] </args>
      <args> y[18] x[10] </args>
      <args> y[20] x[11] </args>
      <args> y[22] x[12] </args>
      <args> y[24] x[13] </args>
      <args> y[26] x[14] </args>
      <args> y[28] x[15] </args>
    </group>
    <group>
      <extension>
        <list> %0 %1 </list>
        <supports> (0,1)(0,2)(0,3)(0,4)(0,5)(0,6)(0,7)(0,8)(0,9)(0,10)(0,11)(0,12)(0,13)(0,14)(0,15)(1,2)(1,3)(1,4)(1,5)(1,6)(1,7)(1,8)(1,9)(1,10)(1,11)(1,12)(1,13)(1,14)(1,15)(2,3)(2,4)(2,5)(2,6)(2,7)(2,8)(2,9)(2,10)(2,11)(2,12)(2,13)(2,14)(2,15)(3,4)(3,5)(3,6)(3,7)(3,8)(3,9)(3,10)(3,11)(3,12)(3,13)(3,14)(3,15)(4,5)(4,6)(4,7)(4,8)(4,9)(4,10)(4,11)(4,12)(4,13)(4,14)(4,15)(5,6)(5,7)(5,8)(5,9)(5,10)(5,11)(5,12)(5,13)(5,14)(5,15)(6,7)(6,8)(6,9)(6,10)(6,11)(6,12)(6,13)(6,14)(6,15)(7,8)(7,9)(7,10)(7,11)(7,12)(7,13)(7,14)(7,15)(8,9)(8,10)(8,11)(8,12)(8,13)(8,14)(8,15)(9,10)(9,11)(9,12)(9,13)(9,14)(9,15)(10,11)(10,12)(10,13)(10,14)(10,15)(11,12)(11,13)(11,14)(11,15)(12,13)(12,14)(12,15)(13,14)(13,15)(14,15) </supports>
      </extension>
      <args> y[5] y[1] </args>
      <args> y[17] y[3] </args>
      <args> y[3] y[19] </args>
      <args> y[29] y[5] </args>
      <args> y[7] y[21] </args>
      <args> y[25] y[9] </args>
      <args> y[9] y[15] </args>
      <args> y[11] y[23] </args>
      <args> y[21] y[13] </args>
      <args> y[23] y[27] </args>
    </group>
    <group>
      <extension>
        <list> %0 %1 </list>
        <supports> (1,3)(2,1)(3,0)(4,2)(5,1)(6,3)(7,2)(8,0) </supports>
      </extension>
      <args> z[1] x[1] </args>
      <args> z[2] x[2] </args>
      <args> z[3] x[3] </args>
      <args> z[4] x[4] </args>
      <args> z[5] x[5] </args>
      <args> z[6] x[6] </args>
      <args> z[7] x[7] </args>
      <args> z[8] x[8] </args>
      <args> z[9] x[9] </args>
      <args> z[10] x[10] </args>
      <args> z[11] x[11] </args>
      <args> z[12] x[12] </args>
      <args> z[13] x[13] </args>
      <args> z[14] x[14] </args>
      <args> z[15] x[15] </args>
    </group>
  </constraints>
</instance>
